39 160 14 176 65 141 169 199 121 6 134 99 111 20 53 55 113 185 83 25 124 127 41 112 50 193 120 162 62 82 95 89 52 48 149 22 54 157 175 30 171 45 91 18 32 184 107 63 151 108 40 10 86 66 96 163 105 100 110 28 64 93 137 42 177 19 178 146 46 34 33 78 4 23 197 102 8 43 119 59 130 71 73 85 114 51 145 101 125 168 27 16 118 9 17 37 154 190 61 60 87 26 67 21 132 135 104 152 153 166 12 1 147 150 122 189 5 69 195 161 2 142 191 172 77 72 68 182 57 192 75 144 35 24 84 29 131 180 97 128 194 139 159 164 179 167 181 76 94 156 117 116 7 187 98 129 49 136 133 140 3 90 115 15 47 103 126 158 165 36 74 38 56 44 0 81 79 170 109 155 143 80 92 198 106 173 11 13 88 148 188 183 31 70 58 138 196 123 174 186 

